NAME : E-n10
COMMENT : VRPD
TYPE : CVRP
DIMENSION : 10
CAPACITY : 5
EDGE_WEIGHT_TYPE : EUC_2D
NODE_COORD_SECTION
1 30 40
2 37 52
3 49 49
4 52 64
5 20 26
6 40 30
7 21 47
8 17 63
9 31 62
10 52 33
DEMAND_SECTION
1 1
2 1
3 1
4 1
5 1
6 1
7 1
8 1
9 1
10 0
DEPOT_SECTION
 10
 -1
EOF
